
set I:= 2	3	4 5 6	7 	8	9	10	11 12 13	14	15 16	17	18	19	20 21 22 
23 24 25 26 27 28 29 30 31 32 33 34 35 36 37 38 39 40 41 42 43 44 45 46 47 48 49 50 51
52 53 54 55 56 57 58 59 60 61 62 63 64 65 66 67 68 69 70 71 72 73 74 75 76;

set Nodos:= 1 2	3	4 5 6	7 	8	9	10	11 12 13	14	15 16	17	18	19	20 21 22
23 24 25 26 27 28 29 30 31 32 33 34 35 36 37 38 39 40 41 42 43 44 45 46 47 48 49 50 51
52 53 54 55 56 57 58 59 60 61 62 63 64 65 66 67 68 69 70 71 72 73 74 75 76;

set K:= 1 2 3;
set R:= A B C;
set T:= A B C;


param: xcoord	ycoord :=
1	40	40
2	22	22
3	36	26
4	21	45
5	45	35
6	55	20
7	33	34
8	50	50
9	55	45
10	26	59
11	40	66
12	55	65
13	35	51
14	62	35
15	62	57
16	62	24
17	21	36
18	33	44
19	9	56
20	62	48
21	66	14
22	44	13
23	26	13
24	11	28
25	7	43
26	17	64
27	41	46
28	55	34
29	35	16
30	52	26
31	43	26
32	31	76
33	22	53
34	26	29
35	50	40
36	55	50
37	54	10
38	60	15
39	47	66
40	30	60
41	30	50
42	12	17
43	15	14
44	16	19
45	21	48
46	50	30
47	51	42
48	50	15
49	48	21
50	12	38
51	15	56
52	29	39
53	54	38
54	55	57
55	67	41
56	10	70
57	6	25
58	65	27
59	40	60
60	70	64
61	64	4
62	36	6
63	30	20
64	20	30
65	15	5
66	50	70
67	57	72
68	45	42
69	38	33
70	50	4
71	66	8
72	59	5
73	35	60
74	27	24
75	40	20
76	40	37


;

param Q:=
1   30000
2   30000
3   30000
;

param P:=
A   10000
B   25000
C   25000
;


param alfa:=
A   1
B    .70
C    .30
;

param q:  A   B   C:=
1	0	0	0
2	900	0	0
3	0	1300	0
4	0	0	550
5	1500	0	0
6	0	1050	0
7	0	0	950
8	750	0	0
9	0	800	0
10	0	0	1450
11	1300	0	0
12	0	1850	0
13	0	0	800
14	600	0	0
15	0	1550	0
16	0	0	400
17	950	0	0
18	0	1000	0
19	0	0	650
20	750	0	0
21	0	1100	0
22	0	0	1400
23	600	0	0
24	0	300	0
25	0	0	1350
26	700	0	0
27	0	900	0
28	0	0	850
29	1450	0	0
30	0	650	0
31	0	0	1100
32	1250	0	0
33	0	1400	0
34	0	0	1350
35	950	0	0
36	0	500	0
37	0	0	600
38	700	0	0
39	0	1200	0
40	0	0	800
41	1650	0	0
42	0	750	0
43	0	0	550
44	900	0	0
45	0	850	0
46	0	0	1050
47	1350	0	0
48	0	950	0
49	0	0	1000
50	250	0	0
51	0	1100	0
52	0	0	600
53	950	0	0
54	0	1100	0
55	0	0	800
56	350	0	0
57	0	1300	0
58	0	0	700
59	1050	0	0
60	0	1200	0
61	0	0	650
62	750	0	0
63	0	900	0
64	0	0	550
65	1400	0	0
66	0	450	0
67	0	0	1850
68	1500	0	0
69	0	500	0
70	0	0	400
71	550	0	0
72	0	150	0
73	0	0	50
74	300	0	0
75	0	500	0
76	0	0	1000

;

param a:  A   B   C:=
1	0	0	0
2	1	0	0
3	0	1	0
4	0	0	1
5	1	0	0
6	0	1	0
7	0	0	1
8	1	0	0
9	0	1	0
10	0	0	1
11	1	0	0
12	0	1	0
13	0	0	1
14	1	0	0
15	0	1	0
16	0	0	1
17	1	0	0
18	0	1	0
19	0	0	1
20	1	0	0
21	0	1	0
22	0	0	1
23	1	0	0
24	0	1	0
25	0	0	1
26	1	0	0
27	0	1	0
28	0	0	1
29	1	0	0
30	0	1	0
31	0	0	1
32	1	0	0
33	0	1	0
34	0	0	1
35	1	0	0
36	0	1	0
37	0	0	1
38	1	0	0
39	0	1	0
40	0	0	1
41	1	0	0
42	0	1	0
43	0	0	1
44	1	0	0
45	0	1	0
46	0	0	1
47	1	0	0
48	0	1	0
49	0	0	1
50	1	0	0
51	0	1	0
52	0	0	1
53	1	0	0
54	0	1	0
55	0	0	1
56	1	0	0
57	0	1	0
58	0	0	1
59	1	0	0
60	0	1	0
61	0	0	1
62	1	0	0
63	0	1	0
64	0	0	1
65	1	0	0
66	0	1	0
67	0	0	1
68	1	0	0
69	0	1	0
70	0	0	1
71	1	0	0
72	0	1	0
73	0	0	1
74	1	0	0
75	0	1	0
76	0	0	1

;

param qu :=
1	0
2	900
3	1300
4	550
5	1500
6	1050
7	950
8	750
9	800
10	1450
11	1300
12	1850
13	800
14	600
15	1550
16	400
17	950
18	1000
19	650
20	750
21	1100
22	1400
23	600
24	300
25	1350
26	700
27	900
28	850
29	1450
30	650
31	1100
32	1250
33	1400
34	1350
35	950
36	500
37	600
38	700
39	1200
40	800
41	1650
42	750
43	550
44	900
45	850
46	1050
47	1350
48	950
49	1000
50	250
51	1100
52	600
53	950
54	1100
55	800
56	350
57	1300
58	700
59	1050
60	1200
61	650
62	750
63	900
64	550
65	1400
66	450
67	1850
68	1500
69	500
70	400
71	550
72	150
73	50
74	300
75	500
76	1000

;

set IT:=
(	2	,	A	)
(	3	,	B	)
(	4	,	C	)
(	5	,	A	)
(	6	,	B	)
(	7	,	C	)
(	8	,	A	)
(	9	,	B	)
(	10	,	C	)
(	11	,	A	)
(	12	,	B	)
(	13	,	C	)
(	14	,	A	)
(	15	,	B	)
(	16	,	C	)
(	17	,	A	)
(	18	,	B	)
(	19	,	C	)
(	20	,	A	)
(	21	,	B	)
(	22	,	C	)
(	23	,	A	)
(	24	,	B	)
(	25	,	C	)
(	26	,	A	)
(	27	,	B	)
(	28	,	C	)
(	29	,	A	)
(	30	,	B	)
(	31	,	C	)
(	32	,	A	)
(	33	,	B	)
(	34	,	C	)
(	35	,	A	)
(	36	,	B	)
(	37	,	C	)
(	38	,	A	)
(	39	,	B	)
(	40	,	C	)
(	41	,	A	)
(	42	,	B	)
(	43	,	C	)
(	44	,	A	)
(	45	,	B	)
(	46	,	C	)
(	47	,	A	)
(	48	,	B	)
(	49	,	C	)
(	50	,	A	)
(	51	,	B	)
(	52	,	C	)
(	53	,	A	)
(	54	,	B	)
(	55	,	C	)
(	56	,	A	)
(	57	,	B	)
(	58	,	C	)
(	59	,	A	)
(	60	,	B	)
(	61	,	C	)
(	62	,	A	)
(	63	,	B	)
(	64	,	C	)
(	65	,	A	)
(	66	,	B	)
(	67	,	C	)
(	68	,	A	)
(	69	,	B	)
(	70	,	C	)
(	71	,	A	)
(	72	,	B	)
(	73	,	C	)
(	74	,	A	)
(	75	,	B	)
(	76	,	C	)

;